1 3 100 173417.45
1 3 200 176468.07
1 3 300 179235.29
2 3 100 188340.29
2 3 200 190011.31
2 3 300 192045.99
3 3 100 178799.74
3 3 200 180932.53
3 3 300 185118.94
4 3 100 173088.80
4 3 200 171794.07
4 3 300 173266.47
5 3 100 165505.83
5 3 200 165803.15
5 3 300 168265.65
